(declare-const a Real)
(declare-const b Real)
(declare-const c Real)
(assert (= (+ (* a b) (* a c) (* b c)) 1))
(assert (> a 0))
(assert (> b 0))
(assert (> c 0))
(assert (not (<= (+ (/ -1 4) (* (/ 17179869184 10555134955777783414078330085995832946127396083370199442517) (pow (+ (/ 37 2) (* (/ 243 2) (pow 3 (/ 1 3)) (pow a 8) (pow b 8) (pow c 8) (pow (+ (pow a -1) (pow b -1) (pow c -1) (* 6 a) (* 6 b) (* 6 c)) (/ 8 3)))) 37))) 0)))
(check-sat)
(get-model)
(exit)